567446 28618.2
230287 305233
2117.4 563662
443573 92542.8
127514 451652
454501 81785.2
442437 148022
296586 240859
90170.8 485710
45359.5 522504
290466 247873
341426 226386
251830 286833
163310 423863
238816 300938
381146 179312
226068 314046
13199.1 543663
248199 293796
435275 159506
191765 411343
295811 246658
343518 222434
515723 58156.1
210780 383320
544970 40839.5
289139 262912
547590 28660.5
79172.7 488136
472622 72851.9
498680 65645.9
518084 56628.5
248156 297564
439906 155745
539788 51358.6
213994 364959
96773 455902
282673 281452
130300 431561
489971 69232.8
160222 426433
37847.3 528059
201320 395710
28660.5 536040
312683 238816
536298 52806.3
322746 230878
507027 58461.5
96024.4 480295
221872 336754
487985 71838.6
166321 414874
285108 266559
117505 455429
210133 389305
495964 65697.7
501992 58543
492876 68183.9
